200
1000
240
240
240
240
239
239
238
238
238
237
237
237
237
234
234
234
233
233
233
232
231
231
231
231
230
230
230
230
230
229
229
229
229
229
228
228
228
228
228
228
228
227
227
227
226
226
225
225
225
225
224
223
223
222
221
221
220
220
219
219
218
217
217
217
216
216
216
216
215
215
215
214
214
213
213
212
212
212
211
211
211
210
210
209
209
209
208
208
208
208
207
207
207
206
205
205
205
205
204
203
203
202
202
202
201
200
200
199
199
198
198
198
198
197
197
196
196
196
194
194
194
194
193
192
192
191
191
190
190
189
189
189
189
188
187
186
185
184
184
184
183
182
182
182
182
182
181
181
181
180
178
178
177
177
176
176
176
175
175
175
175
175
175
175
174
174
174
173
173
173
172
172
171
171
171
171
171
170
170
170
169
169
169
169
169
168
168
168
166
166
165
165
165
164
164
164
163
163
163
162
